data/lp_files/q3/88_7.lp
\ Model foo
\ LP format - for model browsing. Use MPS format to capture full model detail.
Minimize
  z
Subject To
 allocateEach[1]: x[1,1] + x[2,1] + x[3,1] + x[4,1] + x[5,1] = 1
 allocateEach[2]: x[1,2] + x[2,2] + x[3,2] + x[4,2] + x[5,2] = 1
 allocateEach[3]: x[1,3] + x[2,3] + x[3,3] + x[4,3] + x[5,3] = 1
 allocateEach[4]: x[1,4] + x[2,4] + x[3,4] + x[4,4] + x[5,4] = 1
 allocateEach[5]: x[1,5] + x[2,5] + x[3,5] + x[4,5] + x[5,5] = 1
 allocateEach[6]: x[1,6] + x[2,6] + x[3,6] + x[4,6] + x[5,6] = 1
 allocateEach[7]: x[1,7] + x[2,7] + x[3,7] + x[4,7] + x[5,7] = 1
 allocateEach[8]: x[1,8] + x[2,8] + x[3,8] + x[4,8] + x[5,8] = 1
 allocateAllCash: cashProportion[1] + cashProportion[2] + cashProportion[3]
   + cashProportion[4] + cashProportion[5] = 1
 findWorstP[1,2]: z + 0.1119716338527573 cashProportion[1]
   - 0.1119716338527573 cashProportion[2] + 0.1034431277409723 x[1,1]
   + 0.040365774003919 x[1,2] + 0.1368853223849958 x[1,3]
   + 0.156387048614351 x[1,4] + 0.1593542969114491 x[1,5]
   + 0.0264999533451526 x[1,6] + 0.1743398339087431 x[1,7]
   + 0.0907530092376598 x[1,8] - 0.1034431277409723 x[2,1]
   - 0.040365774003919 x[2,2] - 0.1368853223849958 x[2,3]
   - 0.156387048614351 x[2,4] - 0.1593542969114491 x[2,5]
   - 0.0264999533451526 x[2,6] - 0.1743398339087431 x[2,7]
   - 0.0907530092376598 x[2,8] >= 0
 findWorstP[1,3]: z + 0.1119716338527573 cashProportion[1]
   - 0.1119716338527573 cashProportion[3] + 0.1034431277409723 x[1,1]
   + 0.040365774003919 x[1,2] + 0.1368853223849958 x[1,3]
   + 0.156387048614351 x[1,4] + 0.1593542969114491 x[1,5]
   + 0.0264999533451526 x[1,6] + 0.1743398339087431 x[1,7]
   + 0.0907530092376598 x[1,8] - 0.1034431277409723 x[3,1]
   - 0.040365774003919 x[3,2] - 0.1368853223849958 x[3,3]
   - 0.156387048614351 x[3,4] - 0.1593542969114491 x[3,5]
   - 0.0264999533451526 x[3,6] - 0.1743398339087431 x[3,7]
   - 0.0907530092376598 x[3,8] >= 0
 findWorstP[1,4]: z + 0.1119716338527573 cashProportion[1]
   - 0.1119716338527573 cashProportion[4] + 0.1034431277409723 x[1,1]
   + 0.040365774003919 x[1,2] + 0.1368853223849958 x[1,3]
   + 0.156387048614351 x[1,4] + 0.1593542969114491 x[1,5]
   + 0.0264999533451526 x[1,6] + 0.1743398339087431 x[1,7]
   + 0.0907530092376598 x[1,8] - 0.1034431277409723 x[4,1]
   - 0.040365774003919 x[4,2] - 0.1368853223849958 x[4,3]
   - 0.156387048614351 x[4,4] - 0.1593542969114491 x[4,5]
   - 0.0264999533451526 x[4,6] - 0.1743398339087431 x[4,7]
   - 0.0907530092376598 x[4,8] >= 0
 findWorstP[1,5]: z + 0.1119716338527573 cashProportion[1]
   - 0.1119716338527573 cashProportion[5] + 0.1034431277409723 x[1,1]
   + 0.040365774003919 x[1,2] + 0.1368853223849958 x[1,3]
   + 0.156387048614351 x[1,4] + 0.1593542969114491 x[1,5]
   + 0.0264999533451526 x[1,6] + 0.1743398339087431 x[1,7]
   + 0.0907530092376598 x[1,8] - 0.1034431277409723 x[5,1]
   - 0.040365774003919 x[5,2] - 0.1368853223849958 x[5,3]
   - 0.156387048614351 x[5,4] - 0.1593542969114491 x[5,5]
   - 0.0264999533451526 x[5,6] - 0.1743398339087431 x[5,7]
   - 0.0907530092376598 x[5,8] >= 0
 findWorstP[2,1]: z - 0.1209774981853375 cashProportion[1]
   + 0.1209774981853375 cashProportion[2] - 0.1332567142511493 x[1,1]
   - 0.0770021775949673 x[1,2] - 0.128619243487378 x[1,3]
   - 0.0116541656585208 x[1,4] - 0.0113113960803291 x[1,5]
   - 0.192838132107428 x[1,6] - 0.2013065569804016 x[1,7]
   - 0.1230341156544883 x[1,8] + 0.1332567142511493 x[2,1]
   + 0.0770021775949673 x[2,2] + 0.128619243487378 x[2,3]
   + 0.0116541656585208 x[2,4] + 0.0113113960803291 x[2,5]
   + 0.192838132107428 x[2,6] + 0.2013065569804016 x[2,7]
   + 0.1230341156544883 x[2,8] >= 0
 findWorstP[2,3]: z + 0.1209774981853375 cashProportion[2]
   - 0.1209774981853375 cashProportion[3] + 0.1332567142511493 x[2,1]
   + 0.0770021775949673 x[2,2] + 0.128619243487378 x[2,3]
   + 0.0116541656585208 x[2,4] + 0.0113113960803291 x[2,5]
   + 0.192838132107428 x[2,6] + 0.2013065569804016 x[2,7]
   + 0.1230341156544883 x[2,8] - 0.1332567142511493 x[3,1]
   - 0.0770021775949673 x[3,2] - 0.128619243487378 x[3,3]
   - 0.0116541656585208 x[3,4] - 0.0113113960803291 x[3,5]
   - 0.192838132107428 x[3,6] - 0.2013065569804016 x[3,7]
   - 0.1230341156544883 x[3,8] >= 0
 findWorstP[2,4]: z + 0.1209774981853375 cashProportion[2]
   - 0.1209774981853375 cashProportion[4] + 0.1332567142511493 x[2,1]
   + 0.0770021775949673 x[2,2] + 0.128619243487378 x[2,3]
   + 0.0116541656585208 x[2,4] + 0.0113113960803291 x[2,5]
   + 0.192838132107428 x[2,6] + 0.2013065569804016 x[2,7]
   + 0.1230341156544883 x[2,8] - 0.1332567142511493 x[4,1]
   - 0.0770021775949673 x[4,2] - 0.128619243487378 x[4,3]
   - 0.0116541656585208 x[4,4] - 0.0113113960803291 x[4,5]
   - 0.192838132107428 x[4,6] - 0.2013065569804016 x[4,7]
   - 0.1230341156544883 x[4,8] >= 0
 findWorstP[2,5]: z + 0.1209774981853375 cashProportion[2]
   - 0.1209774981853375 cashProportion[5] + 0.1332567142511493 x[2,1]
   + 0.0770021775949673 x[2,2] + 0.128619243487378 x[2,3]
   + 0.0116541656585208 x[2,4] + 0.0113113960803291 x[2,5]
   + 0.192838132107428 x[2,6] + 0.2013065569804016 x[2,7]
   + 0.1230341156544883 x[2,8] - 0.1332567142511493 x[5,1]
   - 0.0770021775949673 x[5,2] - 0.128619243487378 x[5,3]
   - 0.0116541656585208 x[5,4] - 0.0113113960803291 x[5,5]
   - 0.192838132107428 x[5,6] - 0.2013065569804016 x[5,7]
   - 0.1230341156544883 x[5,8] >= 0
 findWorstP[3,1]: z - 0.1425855513307985 cashProportion[1]
   + 0.1425855513307985 cashProportion[3] - 0.1307747148288973 x[1,1]
   - 0.1053469581749049 x[1,2] - 0.1773051330798479 x[1,3]
   - 0.1620722433460076 x[1,4] - 0.0716730038022814 x[1,5]
   - 0.0876188212927757 x[1,6] - 0.0356226235741445 x[1,7]
   - 0.0870009505703422 x[1,8] + 0.1307747148288973 x[3,1]
   + 0.1053469581749049 x[3,2] + 0.1773051330798479 x[3,3]
   + 0.1620722433460076 x[3,4] + 0.0716730038022814 x[3,5]
   + 0.0876188212927757 x[3,6] + 0.0356226235741445 x[3,7]
   + 0.0870009505703422 x[3,8] >= 0
 findWorstP[3,2]: z - 0.1425855513307985 cashProportion[2]
   + 0.1425855513307985 cashProportion[3] - 0.1307747148288973 x[2,1]
   - 0.1053469581749049 x[2,2] - 0.1773051330798479 x[2,3]
   - 0.1620722433460076 x[2,4] - 0.0716730038022814 x[2,5]
   - 0.0876188212927757 x[2,6] - 0.0356226235741445 x[2,7]
   - 0.0870009505703422 x[2,8] + 0.1307747148288973 x[3,1]
   + 0.1053469581749049 x[3,2] + 0.1773051330798479 x[3,3]
   + 0.1620722433460076 x[3,4] + 0.0716730038022814 x[3,5]
   + 0.0876188212927757 x[3,6] + 0.0356226235741445 x[3,7]
   + 0.0870009505703422 x[3,8] >= 0
 findWorstP[3,4]: z + 0.1425855513307985 cashProportion[3]
   - 0.1425855513307985 cashProportion[4] + 0.1307747148288973 x[3,1]
   + 0.1053469581749049 x[3,2] + 0.1773051330798479 x[3,3]
   + 0.1620722433460076 x[3,4] + 0.0716730038022814 x[3,5]
   + 0.0876188212927757 x[3,6] + 0.0356226235741445 x[3,7]
   + 0.0870009505703422 x[3,8] - 0.1307747148288973 x[4,1]
   - 0.1053469581749049 x[4,2] - 0.1773051330798479 x[4,3]
   - 0.1620722433460076 x[4,4] - 0.0716730038022814 x[4,5]
   - 0.0876188212927757 x[4,6] - 0.0356226235741445 x[4,7]
   - 0.0870009505703422 x[4,8] >= 0
 findWorstP[3,5]: z + 0.1425855513307985 cashProportion[3]
   - 0.1425855513307985 cashProportion[5] + 0.1307747148288973 x[3,1]
   + 0.1053469581749049 x[3,2] + 0.1773051330798479 x[3,3]
   + 0.1620722433460076 x[3,4] + 0.0716730038022814 x[3,5]
   + 0.0876188212927757 x[3,6] + 0.0356226235741445 x[3,7]
   + 0.0870009505703422 x[3,8] - 0.1307747148288973 x[5,1]
   - 0.1053469581749049 x[5,2] - 0.1773051330798479 x[5,3]
   - 0.1620722433460076 x[5,4] - 0.0716730038022814 x[5,5]
   - 0.0876188212927757 x[5,6] - 0.0356226235741445 x[5,7]
   - 0.0870009505703422 x[5,8] >= 0
 findWorstP[4,1]: z - 0.1408417642778339 cashProportion[1]
   + 0.1408417642778339 cashProportion[4] - 0.0621816389286637 x[1,1]
   - 0.0227928921856294 x[1,2] - 0.0972277646064647 x[1,3]
   - 0.0708668810591301 x[1,4] - 0.2033989812445718 x[1,5]
   - 0.0988474448956597 x[1,6] - 0.1033309077251708 x[1,7]
   - 0.2005117250768761 x[1,8] + 0.0621816389286637 x[4,1]
   + 0.0227928921856294 x[4,2] + 0.0972277646064647 x[4,3]
   + 0.0708668810591301 x[4,4] + 0.2033989812445718 x[4,5]
   + 0.0988474448956597 x[4,6] + 0.1033309077251708 x[4,7]
   + 0.2005117250768761 x[4,8] >= 0
 findWorstP[4,2]: z - 0.1408417642778339 cashProportion[2]
   + 0.1408417642778339 cashProportion[4] - 0.0621816389286637 x[2,1]
   - 0.0227928921856294 x[2,2] - 0.0972277646064647 x[2,3]
   - 0.0708668810591301 x[2,4] - 0.2033989812445718 x[2,5]
   - 0.0988474448956597 x[2,6] - 0.1033309077251708 x[2,7]
   - 0.2005117250768761 x[2,8] + 0.0621816389286637 x[4,1]
   + 0.0227928921856294 x[4,2] + 0.0972277646064647 x[4,3]
   + 0.0708668810591301 x[4,4] + 0.2033989812445718 x[4,5]
   + 0.0988474448956597 x[4,6] + 0.1033309077251708 x[4,7]
   + 0.2005117250768761 x[4,8] >= 0
 findWorstP[4,3]: z - 0.1408417642778339 cashProportion[3]
   + 0.1408417642778339 cashProportion[4] - 0.0621816389286637 x[3,1]
   - 0.0227928921856294 x[3,2] - 0.0972277646064647 x[3,3]
   - 0.0708668810591301 x[3,4] - 0.2033989812445718 x[3,5]
   - 0.0988474448956597 x[3,6] - 0.1033309077251708 x[3,7]
   - 0.2005117250768761 x[3,8] + 0.0621816389286637 x[4,1]
   + 0.0227928921856294 x[4,2] + 0.0972277646064647 x[4,3]
   + 0.0708668810591301 x[4,4] + 0.2033989812445718 x[4,5]
   + 0.0988474448956597 x[4,6] + 0.1033309077251708 x[4,7]
   + 0.2005117250768761 x[4,8] >= 0
 findWorstP[4,5]: z + 0.1408417642778339 cashProportion[4]
   - 0.1408417642778339 cashProportion[5] + 0.0621816389286637 x[4,1]
   + 0.0227928921856294 x[4,2] + 0.0972277646064647 x[4,3]
   + 0.0708668810591301 x[4,4] + 0.2033989812445718 x[4,5]
   + 0.0988474448956597 x[4,6] + 0.1033309077251708 x[4,7]
   + 0.2005117250768761 x[4,8] - 0.0621816389286637 x[5,1]
   - 0.0227928921856294 x[5,2] - 0.0972277646064647 x[5,3]
   - 0.0708668810591301 x[5,4] - 0.2033989812445718 x[5,5]
   - 0.0988474448956597 x[5,6] - 0.1033309077251708 x[5,7]
   - 0.2005117250768761 x[5,8] >= 0
 findWorstP[5,1]: z - 0.1135782838321313 cashProportion[1]
   + 0.1135782838321313 cashProportion[5] - 0.0834989683305885 x[1,1]
   - 0.1075018456471123 x[1,2] - 0.1722793268593712 x[1,3]
   - 0.1108902644481042 x[1,4] - 0.0595150207280368 x[1,5]
   - 0.1558483351316562 x[1,6] - 0.1812709409960815 x[1,7]
   - 0.0156170140269181 x[1,8] + 0.0834989683305885 x[5,1]
   + 0.1075018456471123 x[5,2] + 0.1722793268593712 x[5,3]
   + 0.1108902644481042 x[5,4] + 0.0595150207280368 x[5,5]
   + 0.1558483351316562 x[5,6] + 0.1812709409960815 x[5,7]
   + 0.0156170140269181 x[5,8] >= 0
 findWorstP[5,2]: z - 0.1135782838321313 cashProportion[2]
   + 0.1135782838321313 cashProportion[5] - 0.0834989683305885 x[2,1]
   - 0.1075018456471123 x[2,2] - 0.1722793268593712 x[2,3]
   - 0.1108902644481042 x[2,4] - 0.0595150207280368 x[2,5]
   - 0.1558483351316562 x[2,6] - 0.1812709409960815 x[2,7]
   - 0.0156170140269181 x[2,8] + 0.0834989683305885 x[5,1]
   + 0.1075018456471123 x[5,2] + 0.1722793268593712 x[5,3]
   + 0.1108902644481042 x[5,4] + 0.0595150207280368 x[5,5]
   + 0.1558483351316562 x[5,6] + 0.1812709409960815 x[5,7]
   + 0.0156170140269181 x[5,8] >= 0
 findWorstP[5,3]: z - 0.1135782838321313 cashProportion[3]
   + 0.1135782838321313 cashProportion[5] - 0.0834989683305885 x[3,1]
   - 0.1075018456471123 x[3,2] - 0.1722793268593712 x[3,3]
   - 0.1108902644481042 x[3,4] - 0.0595150207280368 x[3,5]
   - 0.1558483351316562 x[3,6] - 0.1812709409960815 x[3,7]
   - 0.0156170140269181 x[3,8] + 0.0834989683305885 x[5,1]
   + 0.1075018456471123 x[5,2] + 0.1722793268593712 x[5,3]
   + 0.1108902644481042 x[5,4] + 0.0595150207280368 x[5,5]
   + 0.1558483351316562 x[5,6] + 0.1812709409960815 x[5,7]
   + 0.0156170140269181 x[5,8] >= 0
 findWorstP[5,4]: z - 0.1135782838321313 cashProportion[4]
   + 0.1135782838321313 cashProportion[5] - 0.0834989683305885 x[4,1]
   - 0.1075018456471123 x[4,2] - 0.1722793268593712 x[4,3]
   - 0.1108902644481042 x[4,4] - 0.0595150207280368 x[4,5]
   - 0.1558483351316562 x[4,6] - 0.1812709409960815 x[4,7]
   - 0.0156170140269181 x[4,8] + 0.0834989683305885 x[5,1]
   + 0.1075018456471123 x[5,2] + 0.1722793268593712 x[5,3]
   + 0.1108902644481042 x[5,4] + 0.0595150207280368 x[5,5]
   + 0.1558483351316562 x[5,6] + 0.1812709409960815 x[5,7]
   + 0.0156170140269181 x[5,8] >= 0
Bounds
 z <= 1
 -infinity <= cashProportion[1] <= 1
 -infinity <= cashProportion[2] <= 1
 -infinity <= cashProportion[3] <= 1
 -infinity <= cashProportion[4] <= 1
 -infinity <= cashProportion[5] <= 1
Binaries
 x[1,1] x[1,2] x[1,3] x[1,4] x[1,5] x[1,6] x[1,7] x[1,8] x[2,1] x[2,2]
 x[2,3] x[2,4] x[2,5] x[2,6] x[2,7] x[2,8] x[3,1] x[3,2] x[3,3] x[3,4]
 x[3,5] x[3,6] x[3,7] x[3,8] x[4,1] x[4,2] x[4,3] x[4,4] x[4,5] x[4,6]
 x[4,7] x[4,8] x[5,1] x[5,2] x[5,3] x[5,4] x[5,5] x[5,6] x[5,7] x[5,8]
End
