data/mps_files/q3/88_7.mps
NAME foo
ROWS
 N  OBJ
 E  allocateEach[1]
 E  allocateEach[2]
 E  allocateEach[3]
 E  allocateEach[4]
 E  allocateEach[5]
 E  allocateEach[6]
 E  allocateEach[7]
 E  allocateEach[8]
 E  allocateAllCash
 G  findWorstP[1,2]
 G  findWorstP[1,3]
 G  findWorstP[1,4]
 G  findWorstP[1,5]
 G  findWorstP[2,1]
 G  findWorstP[2,3]
 G  findWorstP[2,4]
 G  findWorstP[2,5]
 G  findWorstP[3,1]
 G  findWorstP[3,2]
 G  findWorstP[3,4]
 G  findWorstP[3,5]
 G  findWorstP[4,1]
 G  findWorstP[4,2]
 G  findWorstP[4,3]
 G  findWorstP[4,5]
 G  findWorstP[5,1]
 G  findWorstP[5,2]
 G  findWorstP[5,3]
 G  findWorstP[5,4]
COLUMNS
    z         OBJ       1
    z         findWorstP[1,2]  1
    z         findWorstP[1,3]  1
    z         findWorstP[1,4]  1
    z         findWorstP[1,5]  1
    z         findWorstP[2,1]  1
    z         findWorstP[2,3]  1
    z         findWorstP[2,4]  1
    z         findWorstP[2,5]  1
    z         findWorstP[3,1]  1
    z         findWorstP[3,2]  1
    z         findWorstP[3,4]  1
    z         findWorstP[3,5]  1
    z         findWorstP[4,1]  1
    z         findWorstP[4,2]  1
    z         findWorstP[4,3]  1
    z         findWorstP[4,5]  1
    z         findWorstP[5,1]  1
    z         findWorstP[5,2]  1
    z         findWorstP[5,3]  1
    z         findWorstP[5,4]  1
    cashProportion[1]  allocateAllCash  1
    cashProportion[1]  findWorstP[1,2]  1.1197163385275732e-01
    cashProportion[1]  findWorstP[1,3]  1.1197163385275732e-01
    cashProportion[1]  findWorstP[1,4]  1.1197163385275732e-01
    cashProportion[1]  findWorstP[1,5]  1.1197163385275732e-01
    cashProportion[1]  findWorstP[2,1]  -1.2097749818533754e-01
    cashProportion[1]  findWorstP[3,1]  -1.4258555133079848e-01
    cashProportion[1]  findWorstP[4,1]  -1.4084176427783390e-01
    cashProportion[1]  findWorstP[5,1]  -1.1357828383213131e-01
    cashProportion[2]  allocateAllCash  1
    cashProportion[2]  findWorstP[1,2]  -1.1197163385275732e-01
    cashProportion[2]  findWorstP[2,1]  1.2097749818533754e-01
    cashProportion[2]  findWorstP[2,3]  1.2097749818533754e-01
    cashProportion[2]  findWorstP[2,4]  1.2097749818533754e-01
    cashProportion[2]  findWorstP[2,5]  1.2097749818533754e-01
    cashProportion[2]  findWorstP[3,2]  -1.4258555133079848e-01
    cashProportion[2]  findWorstP[4,2]  -1.4084176427783390e-01
    cashProportion[2]  findWorstP[5,2]  -1.1357828383213131e-01
    cashProportion[3]  allocateAllCash  1
    cashProportion[3]  findWorstP[1,3]  -1.1197163385275732e-01
    cashProportion[3]  findWorstP[2,3]  -1.2097749818533754e-01
    cashProportion[3]  findWorstP[3,1]  1.4258555133079848e-01
    cashProportion[3]  findWorstP[3,2]  1.4258555133079848e-01
    cashProportion[3]  findWorstP[3,4]  1.4258555133079848e-01
    cashProportion[3]  findWorstP[3,5]  1.4258555133079848e-01
    cashProportion[3]  findWorstP[4,3]  -1.4084176427783390e-01
    cashProportion[3]  findWorstP[5,3]  -1.1357828383213131e-01
    cashProportion[4]  allocateAllCash  1
    cashProportion[4]  findWorstP[1,4]  -1.1197163385275732e-01
    cashProportion[4]  findWorstP[2,4]  -1.2097749818533754e-01
    cashProportion[4]  findWorstP[3,4]  -1.4258555133079848e-01
    cashProportion[4]  findWorstP[4,1]  1.4084176427783390e-01
    cashProportion[4]  findWorstP[4,2]  1.4084176427783390e-01
    cashProportion[4]  findWorstP[4,3]  1.4084176427783390e-01
    cashProportion[4]  findWorstP[4,5]  1.4084176427783390e-01
    cashProportion[4]  findWorstP[5,4]  -1.1357828383213131e-01
    cashProportion[5]  allocateAllCash  1
    cashProportion[5]  findWorstP[1,5]  -1.1197163385275732e-01
    cashProportion[5]  findWorstP[2,5]  -1.2097749818533754e-01
    cashProportion[5]  findWorstP[3,5]  -1.4258555133079848e-01
    cashProportion[5]  findWorstP[4,5]  -1.4084176427783390e-01
    cashProportion[5]  findWorstP[5,1]  1.1357828383213131e-01
    cashProportion[5]  findWorstP[5,2]  1.1357828383213131e-01
    cashProportion[5]  findWorstP[5,3]  1.1357828383213131e-01
    cashProportion[5]  findWorstP[5,4]  1.1357828383213131e-01
    MARKER    'MARKER'                 'INTORG'
    x[1,1]    allocateEach[1]  1
    x[1,1]    findWorstP[1,2]  1.0344312774097231e-01
    x[1,1]    findWorstP[1,3]  1.0344312774097231e-01
    x[1,1]    findWorstP[1,4]  1.0344312774097231e-01
    x[1,1]    findWorstP[1,5]  1.0344312774097231e-01
    x[1,1]    findWorstP[2,1]  -1.3325671425114929e-01
    x[1,1]    findWorstP[3,1]  -1.3077471482889733e-01
    x[1,1]    findWorstP[4,1]  -6.2181638928663657e-02
    x[1,1]    findWorstP[5,1]  -8.3498968330588522e-02
    x[1,2]    allocateEach[2]  1
    x[1,2]    findWorstP[1,2]  4.0365774003919011e-02
    x[1,2]    findWorstP[1,3]  4.0365774003919011e-02
    x[1,2]    findWorstP[1,4]  4.0365774003919011e-02
    x[1,2]    findWorstP[1,5]  4.0365774003919011e-02
    x[1,2]    findWorstP[2,1]  -7.7002177594967344e-02
    x[1,2]    findWorstP[3,1]  -1.0534695817490494e-01
    x[1,2]    findWorstP[4,1]  -2.2792892185629448e-02
    x[1,2]    findWorstP[5,1]  -1.0750184564711227e-01
    x[1,3]    allocateEach[3]  1
    x[1,3]    findWorstP[1,2]  1.3688532238499582e-01
    x[1,3]    findWorstP[1,3]  1.3688532238499582e-01
    x[1,3]    findWorstP[1,4]  1.3688532238499582e-01
    x[1,3]    findWorstP[1,5]  1.3688532238499582e-01
    x[1,3]    findWorstP[2,1]  -1.2861924348737802e-01
    x[1,3]    findWorstP[3,1]  -1.7730513307984788e-01
    x[1,3]    findWorstP[4,1]  -9.7227764606464651e-02
    x[1,3]    findWorstP[5,1]  -1.7227932685937117e-01
    x[1,4]    allocateEach[4]  1
    x[1,4]    findWorstP[1,2]  1.5638704861435104e-01
    x[1,4]    findWorstP[1,3]  1.5638704861435104e-01
    x[1,4]    findWorstP[1,4]  1.5638704861435104e-01
    x[1,4]    findWorstP[1,5]  1.5638704861435104e-01
    x[1,4]    findWorstP[2,1]  -1.1654165658520848e-02
    x[1,4]    findWorstP[3,1]  -1.6207224334600759e-01
    x[1,4]    findWorstP[4,1]  -7.0866881059130082e-02
    x[1,4]    findWorstP[5,1]  -1.1089026444810419e-01
    x[1,5]    allocateEach[5]  1
    x[1,5]    findWorstP[1,2]  1.5935429691144912e-01
    x[1,5]    findWorstP[1,3]  1.5935429691144912e-01
    x[1,5]    findWorstP[1,4]  1.5935429691144912e-01
    x[1,5]    findWorstP[1,5]  1.5935429691144912e-01
    x[1,5]    findWorstP[2,1]  -1.1311396080329059e-02
    x[1,5]    findWorstP[3,1]  -7.1673003802281351e-02
    x[1,5]    findWorstP[4,1]  -2.0339898124457176e-01
    x[1,5]    findWorstP[5,1]  -5.9515020728036806e-02
    x[1,6]    allocateEach[6]  1
    x[1,6]    findWorstP[1,2]  2.6499953345152562e-02
    x[1,6]    findWorstP[1,3]  2.6499953345152562e-02
    x[1,6]    findWorstP[1,4]  2.6499953345152562e-02
    x[1,6]    findWorstP[1,5]  2.6499953345152562e-02
    x[1,6]    findWorstP[2,1]  -1.9283813210742803e-01
    x[1,6]    findWorstP[3,1]  -8.7618821292775664e-02
    x[1,6]    findWorstP[4,1]  -9.8847444895659733e-02
    x[1,6]    findWorstP[5,1]  -1.5584833513165616e-01
    x[1,7]    allocateEach[7]  1
    x[1,7]    findWorstP[1,2]  1.7433983390874314e-01
    x[1,7]    findWorstP[1,3]  1.7433983390874314e-01
    x[1,7]    findWorstP[1,4]  1.7433983390874314e-01
    x[1,7]    findWorstP[1,5]  1.7433983390874314e-01
    x[1,7]    findWorstP[2,1]  -2.0130655698040165e-01
    x[1,7]    findWorstP[3,1]  -3.5622623574144488e-02
    x[1,7]    findWorstP[4,1]  -1.0333090772517078e-01
    x[1,7]    findWorstP[5,1]  -1.8127094099608154e-01
    x[1,8]    allocateEach[8]  1
    x[1,8]    findWorstP[1,2]  0.0907530092376598
    x[1,8]    findWorstP[1,3]  0.0907530092376598
    x[1,8]    findWorstP[1,4]  0.0907530092376598
    x[1,8]    findWorstP[1,5]  0.0907530092376598
    x[1,8]    findWorstP[2,1]  -1.2303411565448825e-01
    x[1,8]    findWorstP[3,1]  -0.0870009505703422
    x[1,8]    findWorstP[4,1]  -2.0051172507687615e-01
    x[1,8]    findWorstP[5,1]  -1.5617014026918055e-02
    x[2,1]    allocateEach[1]  1
    x[2,1]    findWorstP[1,2]  -1.0344312774097231e-01
    x[2,1]    findWorstP[2,1]  1.3325671425114929e-01
    x[2,1]    findWorstP[2,3]  1.3325671425114929e-01
    x[2,1]    findWorstP[2,4]  1.3325671425114929e-01
    x[2,1]    findWorstP[2,5]  1.3325671425114929e-01
    x[2,1]    findWorstP[3,2]  -1.3077471482889733e-01
    x[2,1]    findWorstP[4,2]  -6.2181638928663657e-02
    x[2,1]    findWorstP[5,2]  -8.3498968330588522e-02
    x[2,2]    allocateEach[2]  1
    x[2,2]    findWorstP[1,2]  -4.0365774003919011e-02
    x[2,2]    findWorstP[2,1]  7.7002177594967344e-02
    x[2,2]    findWorstP[2,3]  7.7002177594967344e-02
    x[2,2]    findWorstP[2,4]  7.7002177594967344e-02
    x[2,2]    findWorstP[2,5]  7.7002177594967344e-02
    x[2,2]    findWorstP[3,2]  -1.0534695817490494e-01
    x[2,2]    findWorstP[4,2]  -2.2792892185629448e-02
    x[2,2]    findWorstP[5,2]  -1.0750184564711227e-01
    x[2,3]    allocateEach[3]  1
    x[2,3]    findWorstP[1,2]  -1.3688532238499582e-01
    x[2,3]    findWorstP[2,1]  1.2861924348737802e-01
    x[2,3]    findWorstP[2,3]  1.2861924348737802e-01
    x[2,3]    findWorstP[2,4]  1.2861924348737802e-01
    x[2,3]    findWorstP[2,5]  1.2861924348737802e-01
    x[2,3]    findWorstP[3,2]  -1.7730513307984788e-01
    x[2,3]    findWorstP[4,2]  -9.7227764606464651e-02
    x[2,3]    findWorstP[5,2]  -1.7227932685937117e-01
    x[2,4]    allocateEach[4]  1
    x[2,4]    findWorstP[1,2]  -1.5638704861435104e-01
    x[2,4]    findWorstP[2,1]  1.1654165658520848e-02
    x[2,4]    findWorstP[2,3]  1.1654165658520848e-02
    x[2,4]    findWorstP[2,4]  1.1654165658520848e-02
    x[2,4]    findWorstP[2,5]  1.1654165658520848e-02
    x[2,4]    findWorstP[3,2]  -1.6207224334600759e-01
    x[2,4]    findWorstP[4,2]  -7.0866881059130082e-02
    x[2,4]    findWorstP[5,2]  -1.1089026444810419e-01
    x[2,5]    allocateEach[5]  1
    x[2,5]    findWorstP[1,2]  -1.5935429691144912e-01
    x[2,5]    findWorstP[2,1]  1.1311396080329059e-02
    x[2,5]    findWorstP[2,3]  1.1311396080329059e-02
    x[2,5]    findWorstP[2,4]  1.1311396080329059e-02
    x[2,5]    findWorstP[2,5]  1.1311396080329059e-02
    x[2,5]    findWorstP[3,2]  -7.1673003802281351e-02
    x[2,5]    findWorstP[4,2]  -2.0339898124457176e-01
    x[2,5]    findWorstP[5,2]  -5.9515020728036806e-02
    x[2,6]    allocateEach[6]  1
    x[2,6]    findWorstP[1,2]  -2.6499953345152562e-02
    x[2,6]    findWorstP[2,1]  1.9283813210742803e-01
    x[2,6]    findWorstP[2,3]  1.9283813210742803e-01
    x[2,6]    findWorstP[2,4]  1.9283813210742803e-01
    x[2,6]    findWorstP[2,5]  1.9283813210742803e-01
    x[2,6]    findWorstP[3,2]  -8.7618821292775664e-02
    x[2,6]    findWorstP[4,2]  -9.8847444895659733e-02
    x[2,6]    findWorstP[5,2]  -1.5584833513165616e-01
    x[2,7]    allocateEach[7]  1
    x[2,7]    findWorstP[1,2]  -1.7433983390874314e-01
    x[2,7]    findWorstP[2,1]  2.0130655698040165e-01
    x[2,7]    findWorstP[2,3]  2.0130655698040165e-01
    x[2,7]    findWorstP[2,4]  2.0130655698040165e-01
    x[2,7]    findWorstP[2,5]  2.0130655698040165e-01
    x[2,7]    findWorstP[3,2]  -3.5622623574144488e-02
    x[2,7]    findWorstP[4,2]  -1.0333090772517078e-01
    x[2,7]    findWorstP[5,2]  -1.8127094099608154e-01
    x[2,8]    allocateEach[8]  1
    x[2,8]    findWorstP[1,2]  -0.0907530092376598
    x[2,8]    findWorstP[2,1]  1.2303411565448825e-01
    x[2,8]    findWorstP[2,3]  1.2303411565448825e-01
    x[2,8]    findWorstP[2,4]  1.2303411565448825e-01
    x[2,8]    findWorstP[2,5]  1.2303411565448825e-01
    x[2,8]    findWorstP[3,2]  -0.0870009505703422
    x[2,8]    findWorstP[4,2]  -2.0051172507687615e-01
    x[2,8]    findWorstP[5,2]  -1.5617014026918055e-02
    x[3,1]    allocateEach[1]  1
    x[3,1]    findWorstP[1,3]  -1.0344312774097231e-01
    x[3,1]    findWorstP[2,3]  -1.3325671425114929e-01
    x[3,1]    findWorstP[3,1]  1.3077471482889733e-01
    x[3,1]    findWorstP[3,2]  1.3077471482889733e-01
    x[3,1]    findWorstP[3,4]  1.3077471482889733e-01
    x[3,1]    findWorstP[3,5]  1.3077471482889733e-01
    x[3,1]    findWorstP[4,3]  -6.2181638928663657e-02
    x[3,1]    findWorstP[5,3]  -8.3498968330588522e-02
    x[3,2]    allocateEach[2]  1
    x[3,2]    findWorstP[1,3]  -4.0365774003919011e-02
    x[3,2]    findWorstP[2,3]  -7.7002177594967344e-02
    x[3,2]    findWorstP[3,1]  1.0534695817490494e-01
    x[3,2]    findWorstP[3,2]  1.0534695817490494e-01
    x[3,2]    findWorstP[3,4]  1.0534695817490494e-01
    x[3,2]    findWorstP[3,5]  1.0534695817490494e-01
    x[3,2]    findWorstP[4,3]  -2.2792892185629448e-02
    x[3,2]    findWorstP[5,3]  -1.0750184564711227e-01
    x[3,3]    allocateEach[3]  1
    x[3,3]    findWorstP[1,3]  -1.3688532238499582e-01
    x[3,3]    findWorstP[2,3]  -1.2861924348737802e-01
    x[3,3]    findWorstP[3,1]  1.7730513307984788e-01
    x[3,3]    findWorstP[3,2]  1.7730513307984788e-01
    x[3,3]    findWorstP[3,4]  1.7730513307984788e-01
    x[3,3]    findWorstP[3,5]  1.7730513307984788e-01
    x[3,3]    findWorstP[4,3]  -9.7227764606464651e-02
    x[3,3]    findWorstP[5,3]  -1.7227932685937117e-01
    x[3,4]    allocateEach[4]  1
    x[3,4]    findWorstP[1,3]  -1.5638704861435104e-01
    x[3,4]    findWorstP[2,3]  -1.1654165658520848e-02
    x[3,4]    findWorstP[3,1]  1.6207224334600759e-01
    x[3,4]    findWorstP[3,2]  1.6207224334600759e-01
    x[3,4]    findWorstP[3,4]  1.6207224334600759e-01
    x[3,4]    findWorstP[3,5]  1.6207224334600759e-01
    x[3,4]    findWorstP[4,3]  -7.0866881059130082e-02
    x[3,4]    findWorstP[5,3]  -1.1089026444810419e-01
    x[3,5]    allocateEach[5]  1
    x[3,5]    findWorstP[1,3]  -1.5935429691144912e-01
    x[3,5]    findWorstP[2,3]  -1.1311396080329059e-02
    x[3,5]    findWorstP[3,1]  7.1673003802281351e-02
    x[3,5]    findWorstP[3,2]  7.1673003802281351e-02
    x[3,5]    findWorstP[3,4]  7.1673003802281351e-02
    x[3,5]    findWorstP[3,5]  7.1673003802281351e-02
    x[3,5]    findWorstP[4,3]  -2.0339898124457176e-01
    x[3,5]    findWorstP[5,3]  -5.9515020728036806e-02
    x[3,6]    allocateEach[6]  1
    x[3,6]    findWorstP[1,3]  -2.6499953345152562e-02
    x[3,6]    findWorstP[2,3]  -1.9283813210742803e-01
    x[3,6]    findWorstP[3,1]  8.7618821292775664e-02
    x[3,6]    findWorstP[3,2]  8.7618821292775664e-02
    x[3,6]    findWorstP[3,4]  8.7618821292775664e-02
    x[3,6]    findWorstP[3,5]  8.7618821292775664e-02
    x[3,6]    findWorstP[4,3]  -9.8847444895659733e-02
    x[3,6]    findWorstP[5,3]  -1.5584833513165616e-01
    x[3,7]    allocateEach[7]  1
    x[3,7]    findWorstP[1,3]  -1.7433983390874314e-01
    x[3,7]    findWorstP[2,3]  -2.0130655698040165e-01
    x[3,7]    findWorstP[3,1]  3.5622623574144488e-02
    x[3,7]    findWorstP[3,2]  3.5622623574144488e-02
    x[3,7]    findWorstP[3,4]  3.5622623574144488e-02
    x[3,7]    findWorstP[3,5]  3.5622623574144488e-02
    x[3,7]    findWorstP[4,3]  -1.0333090772517078e-01
    x[3,7]    findWorstP[5,3]  -1.8127094099608154e-01
    x[3,8]    allocateEach[8]  1
    x[3,8]    findWorstP[1,3]  -0.0907530092376598
    x[3,8]    findWorstP[2,3]  -1.2303411565448825e-01
    x[3,8]    findWorstP[3,1]  0.0870009505703422
    x[3,8]    findWorstP[3,2]  0.0870009505703422
    x[3,8]    findWorstP[3,4]  0.0870009505703422
    x[3,8]    findWorstP[3,5]  0.0870009505703422
    x[3,8]    findWorstP[4,3]  -2.0051172507687615e-01
    x[3,8]    findWorstP[5,3]  -1.5617014026918055e-02
    x[4,1]    allocateEach[1]  1
    x[4,1]    findWorstP[1,4]  -1.0344312774097231e-01
    x[4,1]    findWorstP[2,4]  -1.3325671425114929e-01
    x[4,1]    findWorstP[3,4]  -1.3077471482889733e-01
    x[4,1]    findWorstP[4,1]  6.2181638928663657e-02
    x[4,1]    findWorstP[4,2]  6.2181638928663657e-02
    x[4,1]    findWorstP[4,3]  6.2181638928663657e-02
    x[4,1]    findWorstP[4,5]  6.2181638928663657e-02
    x[4,1]    findWorstP[5,4]  -8.3498968330588522e-02
    x[4,2]    allocateEach[2]  1
    x[4,2]    findWorstP[1,4]  -4.0365774003919011e-02
    x[4,2]    findWorstP[2,4]  -7.7002177594967344e-02
    x[4,2]    findWorstP[3,4]  -1.0534695817490494e-01
    x[4,2]    findWorstP[4,1]  2.2792892185629448e-02
    x[4,2]    findWorstP[4,2]  2.2792892185629448e-02
    x[4,2]    findWorstP[4,3]  2.2792892185629448e-02
    x[4,2]    findWorstP[4,5]  2.2792892185629448e-02
    x[4,2]    findWorstP[5,4]  -1.0750184564711227e-01
    x[4,3]    allocateEach[3]  1
    x[4,3]    findWorstP[1,4]  -1.3688532238499582e-01
    x[4,3]    findWorstP[2,4]  -1.2861924348737802e-01
    x[4,3]    findWorstP[3,4]  -1.7730513307984788e-01
    x[4,3]    findWorstP[4,1]  9.7227764606464651e-02
    x[4,3]    findWorstP[4,2]  9.7227764606464651e-02
    x[4,3]    findWorstP[4,3]  9.7227764606464651e-02
    x[4,3]    findWorstP[4,5]  9.7227764606464651e-02
    x[4,3]    findWorstP[5,4]  -1.7227932685937117e-01
    x[4,4]    allocateEach[4]  1
    x[4,4]    findWorstP[1,4]  -1.5638704861435104e-01
    x[4,4]    findWorstP[2,4]  -1.1654165658520848e-02
    x[4,4]    findWorstP[3,4]  -1.6207224334600759e-01
    x[4,4]    findWorstP[4,1]  7.0866881059130082e-02
    x[4,4]    findWorstP[4,2]  7.0866881059130082e-02
    x[4,4]    findWorstP[4,3]  7.0866881059130082e-02
    x[4,4]    findWorstP[4,5]  7.0866881059130082e-02
    x[4,4]    findWorstP[5,4]  -1.1089026444810419e-01
    x[4,5]    allocateEach[5]  1
    x[4,5]    findWorstP[1,4]  -1.5935429691144912e-01
    x[4,5]    findWorstP[2,4]  -1.1311396080329059e-02
    x[4,5]    findWorstP[3,4]  -7.1673003802281351e-02
    x[4,5]    findWorstP[4,1]  2.0339898124457176e-01
    x[4,5]    findWorstP[4,2]  2.0339898124457176e-01
    x[4,5]    findWorstP[4,3]  2.0339898124457176e-01
    x[4,5]    findWorstP[4,5]  2.0339898124457176e-01
    x[4,5]    findWorstP[5,4]  -5.9515020728036806e-02
    x[4,6]    allocateEach[6]  1
    x[4,6]    findWorstP[1,4]  -2.6499953345152562e-02
    x[4,6]    findWorstP[2,4]  -1.9283813210742803e-01
    x[4,6]    findWorstP[3,4]  -8.7618821292775664e-02
    x[4,6]    findWorstP[4,1]  9.8847444895659733e-02
    x[4,6]    findWorstP[4,2]  9.8847444895659733e-02
    x[4,6]    findWorstP[4,3]  9.8847444895659733e-02
    x[4,6]    findWorstP[4,5]  9.8847444895659733e-02
    x[4,6]    findWorstP[5,4]  -1.5584833513165616e-01
    x[4,7]    allocateEach[7]  1
    x[4,7]    findWorstP[1,4]  -1.7433983390874314e-01
    x[4,7]    findWorstP[2,4]  -2.0130655698040165e-01
    x[4,7]    findWorstP[3,4]  -3.5622623574144488e-02
    x[4,7]    findWorstP[4,1]  1.0333090772517078e-01
    x[4,7]    findWorstP[4,2]  1.0333090772517078e-01
    x[4,7]    findWorstP[4,3]  1.0333090772517078e-01
    x[4,7]    findWorstP[4,5]  1.0333090772517078e-01
    x[4,7]    findWorstP[5,4]  -1.8127094099608154e-01
    x[4,8]    allocateEach[8]  1
    x[4,8]    findWorstP[1,4]  -0.0907530092376598
    x[4,8]    findWorstP[2,4]  -1.2303411565448825e-01
    x[4,8]    findWorstP[3,4]  -0.0870009505703422
    x[4,8]    findWorstP[4,1]  2.0051172507687615e-01
    x[4,8]    findWorstP[4,2]  2.0051172507687615e-01
    x[4,8]    findWorstP[4,3]  2.0051172507687615e-01
    x[4,8]    findWorstP[4,5]  2.0051172507687615e-01
    x[4,8]    findWorstP[5,4]  -1.5617014026918055e-02
    x[5,1]    allocateEach[1]  1
    x[5,1]    findWorstP[1,5]  -1.0344312774097231e-01
    x[5,1]    findWorstP[2,5]  -1.3325671425114929e-01
    x[5,1]    findWorstP[3,5]  -1.3077471482889733e-01
    x[5,1]    findWorstP[4,5]  -6.2181638928663657e-02
    x[5,1]    findWorstP[5,1]  8.3498968330588522e-02
    x[5,1]    findWorstP[5,2]  8.3498968330588522e-02
    x[5,1]    findWorstP[5,3]  8.3498968330588522e-02
    x[5,1]    findWorstP[5,4]  8.3498968330588522e-02
    x[5,2]    allocateEach[2]  1
    x[5,2]    findWorstP[1,5]  -4.0365774003919011e-02
    x[5,2]    findWorstP[2,5]  -7.7002177594967344e-02
    x[5,2]    findWorstP[3,5]  -1.0534695817490494e-01
    x[5,2]    findWorstP[4,5]  -2.2792892185629448e-02
    x[5,2]    findWorstP[5,1]  1.0750184564711227e-01
    x[5,2]    findWorstP[5,2]  1.0750184564711227e-01
    x[5,2]    findWorstP[5,3]  1.0750184564711227e-01
    x[5,2]    findWorstP[5,4]  1.0750184564711227e-01
    x[5,3]    allocateEach[3]  1
    x[5,3]    findWorstP[1,5]  -1.3688532238499582e-01
    x[5,3]    findWorstP[2,5]  -1.2861924348737802e-01
    x[5,3]    findWorstP[3,5]  -1.7730513307984788e-01
    x[5,3]    findWorstP[4,5]  -9.7227764606464651e-02
    x[5,3]    findWorstP[5,1]  1.7227932685937117e-01
    x[5,3]    findWorstP[5,2]  1.7227932685937117e-01
    x[5,3]    findWorstP[5,3]  1.7227932685937117e-01
    x[5,3]    findWorstP[5,4]  1.7227932685937117e-01
    x[5,4]    allocateEach[4]  1
    x[5,4]    findWorstP[1,5]  -1.5638704861435104e-01
    x[5,4]    findWorstP[2,5]  -1.1654165658520848e-02
    x[5,4]    findWorstP[3,5]  -1.6207224334600759e-01
    x[5,4]    findWorstP[4,5]  -7.0866881059130082e-02
    x[5,4]    findWorstP[5,1]  1.1089026444810419e-01
    x[5,4]    findWorstP[5,2]  1.1089026444810419e-01
    x[5,4]    findWorstP[5,3]  1.1089026444810419e-01
    x[5,4]    findWorstP[5,4]  1.1089026444810419e-01
    x[5,5]    allocateEach[5]  1
    x[5,5]    findWorstP[1,5]  -1.5935429691144912e-01
    x[5,5]    findWorstP[2,5]  -1.1311396080329059e-02
    x[5,5]    findWorstP[3,5]  -7.1673003802281351e-02
    x[5,5]    findWorstP[4,5]  -2.0339898124457176e-01
    x[5,5]    findWorstP[5,1]  5.9515020728036806e-02
    x[5,5]    findWorstP[5,2]  5.9515020728036806e-02
    x[5,5]    findWorstP[5,3]  5.9515020728036806e-02
    x[5,5]    findWorstP[5,4]  5.9515020728036806e-02
    x[5,6]    allocateEach[6]  1
    x[5,6]    findWorstP[1,5]  -2.6499953345152562e-02
    x[5,6]    findWorstP[2,5]  -1.9283813210742803e-01
    x[5,6]    findWorstP[3,5]  -8.7618821292775664e-02
    x[5,6]    findWorstP[4,5]  -9.8847444895659733e-02
    x[5,6]    findWorstP[5,1]  1.5584833513165616e-01
    x[5,6]    findWorstP[5,2]  1.5584833513165616e-01
    x[5,6]    findWorstP[5,3]  1.5584833513165616e-01
    x[5,6]    findWorstP[5,4]  1.5584833513165616e-01
    x[5,7]    allocateEach[7]  1
    x[5,7]    findWorstP[1,5]  -1.7433983390874314e-01
    x[5,7]    findWorstP[2,5]  -2.0130655698040165e-01
    x[5,7]    findWorstP[3,5]  -3.5622623574144488e-02
    x[5,7]    findWorstP[4,5]  -1.0333090772517078e-01
    x[5,7]    findWorstP[5,1]  1.8127094099608154e-01
    x[5,7]    findWorstP[5,2]  1.8127094099608154e-01
    x[5,7]    findWorstP[5,3]  1.8127094099608154e-01
    x[5,7]    findWorstP[5,4]  1.8127094099608154e-01
    x[5,8]    allocateEach[8]  1
    x[5,8]    findWorstP[1,5]  -0.0907530092376598
    x[5,8]    findWorstP[2,5]  -1.2303411565448825e-01
    x[5,8]    findWorstP[3,5]  -0.0870009505703422
    x[5,8]    findWorstP[4,5]  -2.0051172507687615e-01
    x[5,8]    findWorstP[5,1]  1.5617014026918055e-02
    x[5,8]    findWorstP[5,2]  1.5617014026918055e-02
    x[5,8]    findWorstP[5,3]  1.5617014026918055e-02
    x[5,8]    findWorstP[5,4]  1.5617014026918055e-02
    MARKER    'MARKER'                 'INTEND'
RHS
    RHS1      allocateEach[1]  1
    RHS1      allocateEach[2]  1
    RHS1      allocateEach[3]  1
    RHS1      allocateEach[4]  1
    RHS1      allocateEach[5]  1
    RHS1      allocateEach[6]  1
    RHS1      allocateEach[7]  1
    RHS1      allocateEach[8]  1
    RHS1      allocateAllCash  1
BOUNDS
 UP BND1      z         1
 MI BND1      cashProportion[1]
 UP BND1      cashProportion[1]  1
 MI BND1      cashProportion[2]
 UP BND1      cashProportion[2]  1
 MI BND1      cashProportion[3]
 UP BND1      cashProportion[3]  1
 MI BND1      cashProportion[4]
 UP BND1      cashProportion[4]  1
 MI BND1      cashProportion[5]
 UP BND1      cashProportion[5]  1
 BV BND1      x[1,1]  
 BV BND1      x[1,2]  
 BV BND1      x[1,3]  
 BV BND1      x[1,4]  
 BV BND1      x[1,5]  
 BV BND1      x[1,6]  
 BV BND1      x[1,7]  
 BV BND1      x[1,8]  
 BV BND1      x[2,1]  
 BV BND1      x[2,2]  
 BV BND1      x[2,3]  
 BV BND1      x[2,4]  
 BV BND1      x[2,5]  
 BV BND1      x[2,6]  
 BV BND1      x[2,7]  
 BV BND1      x[2,8]  
 BV BND1      x[3,1]  
 BV BND1      x[3,2]  
 BV BND1      x[3,3]  
 BV BND1      x[3,4]  
 BV BND1      x[3,5]  
 BV BND1      x[3,6]  
 BV BND1      x[3,7]  
 BV BND1      x[3,8]  
 BV BND1      x[4,1]  
 BV BND1      x[4,2]  
 BV BND1      x[4,3]  
 BV BND1      x[4,4]  
 BV BND1      x[4,5]  
 BV BND1      x[4,6]  
 BV BND1      x[4,7]  
 BV BND1      x[4,8]  
 BV BND1      x[5,1]  
 BV BND1      x[5,2]  
 BV BND1      x[5,3]  
 BV BND1      x[5,4]  
 BV BND1      x[5,5]  
 BV BND1      x[5,6]  
 BV BND1      x[5,7]  
 BV BND1      x[5,8]  
ENDATA
